CMPL model generation - running

CMPL version: 1.11.0
Authors: Thomas Schleiff, Mike Steglich
Distributed under the GPLv3 

create model instance ...
write model instance ...
CMPL model generation - finished

Solver - running


Welcome to IBM(R) ILOG(R) CPLEX(R) Interactive Optimizer 12.7.1.0
  with Simplex, Mixed Integer & Barrier Optimizers
5725-A06 5725-A29 5724-Y48 5724-Y49 5724-Y54 5724-Y55 5655-Y21
Copyright IBM Corp. 1988, 2017.  All Rights Reserved.

Type 'help' for a list of available commands.
Type 'help' followed by a command name for more
information on commands.

CPLEX> Specified objective sense: MINIMIZE
Selected objective  name:  line[1]
Selected RHS        name:  RHS
Selected bound      name:  BOUND
Problem '/tmp/cmpl.T23683.mps' read.
Read time = 0.06 sec. (8.17 ticks)
CPLEX> CPXPARAM_Read_APIEncoding                        "UTF-8"
Tried aggregator 3 times.
MIP Presolve eliminated 19275 rows and 30779 columns.
MIP Presolve modified 340 coefficients.
Aggregator did 610 substitutions.
Reduced MIP has 2470 rows, 3204 columns, and 9362 nonzeros.
Reduced MIP has 3036 binaries, 0 generals, 0 SOSs, and 0 indicators.
Presolve time = 0.05 sec. (40.29 ticks)
Found incumbent of value 897.820325 after 0.10 sec. (98.86 ticks)
Probing time = 0.01 sec. (2.73 ticks)
Tried aggregator 1 time.
Reduced MIP has 2470 rows, 3204 columns, and 9362 nonzeros.
Reduced MIP has 3204 binaries, 0 generals, 0 SOSs, and 0 indicators.
Presolve time = 0.01 sec. (7.73 ticks)
Probing time = 0.01 sec. (2.66 ticks)
Clique table members: 5295.
MIP emphasis: balance optimality and feasibility.
MIP search method: dynamic search.
Parallel mode: none, using 1 thread.
Root relaxation solution time = 0.00 sec. (4.25 ticks)

        Nodes                                         Cuts/
   Node  Left     Objective  IInf  Best Integer    Best Bound    ItCnt     Gap

*     0+    0                          897.8203      -48.4503           105.40%
      0     0       59.2046    18      897.8203       59.2046       71   93.41%
*     0+    0                           91.1497       59.2046            35.05%
*     0+    0                           59.7188       59.2046             0.86%
      0     0       59.6625     2       59.7188      Cuts: 13       75    0.09%
*     0+    0                           59.6669       59.6625             0.01%
      0     0        cutoff             59.6669       59.6625       75    0.01%
Elapsed time = 0.16 sec. (136.48 ticks, tree = 0.01 MB, solutions = 4)

Clique cuts applied:  1
Cover cuts applied:  8
Gomory fractional cuts applied:  4

Root node processing (before b&c):
  Real time             =    0.16 sec. (138.20 ticks)
Sequential b&c:
  Real time             =    0.00 sec. (0.00 ticks)
                          ------------
Total (root+branch&cut) =    0.16 sec. (138.20 ticks)

Solution pool: 4 solutions saved.

MIP - Integer optimal solution:  Objective =  5.9666867000e+01
Solution time =    0.16 sec.  Iterations = 75  Nodes = 0
Deterministic time = 138.30 ticks  (850.77 ticks/sec)

CPLEX> Incumbent solution written to file '/tmp/cmpl.T23683.gsol'.
CPLEX> 
CMPL: Time used for model generation: 0 seconds
CMPL: Time used for solving the model: 1 seconds


Solution written to ASCII file: results/output_generated_conf_0.2/2016-07-04-4/fair-nonlinear.sol

Solver - finished
